RT is False
Default write of storage_offers_DA.csv just to have a file (but constraint should be inactive)
Reading model...
...model read.
creating competitive generators file...
...competitive generators recorded.
Loading data...
.. day-ahead data with real-time VRE data read.
Compiling instance...
0
0.0
0
0.0
...instance created.
Creating Offer Mitigation (model will solve as dispatch if TRUE)...
...storage offer mitigation file created
Converting model to MPEC...
...converted
NOTE: initial MIP solve with only storage competitive to get feasible solution
Solving...

Welcome to IBM(R) ILOG(R) CPLEX(R) Interactive Optimizer 12.9.0.0
  with Simplex, Mixed Integer & Barrier Optimizers
5725-A06 5725-A29 5724-Y48 5724-Y49 5724-Y54 5724-Y55 5655-Y21
Copyright IBM Corp. 1988, 2019.  All Rights Reserved.

Type 'help' for a list of available commands.
Type 'help' followed by a command name for more
information on commands.

CPLEX> Logfile 'cplex.log' closed.
Logfile 'C:\Users\llavin\Desktop\test826\logs\tmp47_rl0ez.cplex.log' open.
CPLEX> New value for parallel optimization mode: -1
CPLEX> New value for mixed integer optimality gap tolerance: 0.005
CPLEX> New value for feasibility tolerance: 1e-09
CPLEX> New value for emphasis for MIP optimization: 1
CPLEX> New value for integrality tolerance: 1e-10
CPLEX> New value for deterministic time limit in ticks: 100000
CPLEX> Problem 'C:\Users\llavin\Desktop\test826\logs\tmpbqz6rucz.pyomo.lp' read.
Read time = 0.23 sec. (14.71 ticks)
CPLEX> Problem name         : C:\Users\llavin\Desktop\test826\logs\tmpbqz6rucz.pyomo.lp
Objective sense      : Maximize
Variables            :   53805  [Nneg: 1,  Box: 22000,  Free: 4464,
                                 Binary: 27340]
Objective nonzeros   :    9029
Linear constraints   :  123205  [Less: 41346,  Greater: 59096,  Equal: 22763]
  Nonzeros           :  291753
  RHS nonzeros       :   67491

Variables            : Min LB: -5000.000        Max UB: 1000000.       
Objective nonzeros   : Min   : 0.07500000       Max   : 2500.000       
Linear constraints   :
  Nonzeros           : Min   : 0.07500000       Max   : 1000000.       
  RHS nonzeros       : Min   : 0.07500000       Max   : 1000000.       
CPLEX> CPXPARAM_Parallel                                -1
CPXPARAM_Emphasis_MIP                            1
CPXPARAM_Simplex_Tolerances_Feasibility          1.0000000000000001e-09
CPXPARAM_DetTimeLimit                            100000
CPXPARAM_MIP_Tolerances_MIPGap                   0.0050000000000000001
CPXPARAM_MIP_Tolerances_Integrality              1e-10
Tried aggregator 3 times.
MIP Presolve eliminated 88710 rows and 19034 columns.
MIP Presolve added 3371 rows and 0 columns.
MIP Presolve modified 24851 coefficients.
Aggregator did 12969 substitutions.
Reduced MIP has 24897 rows, 21246 columns, and 71010 nonzeros.
Reduced MIP has 8396 binaries, 0 generals, 0 SOSs, and 0 indicators.
Presolve time = 0.30 sec. (167.95 ticks)
Probing fixed 379 vars, tightened 4027 bounds.
Probing time = 0.08 sec. (18.50 ticks)
Tried aggregator 2 times.
MIP Presolve eliminated 853 rows and 759 columns.
MIP Presolve modified 3037 coefficients.
Aggregator did 35 substitutions.
Reduced MIP has 24009 rows, 20452 columns, and 68435 nonzeros.
Reduced MIP has 8017 binaries, 0 generals, 0 SOSs, and 0 indicators.
Presolve time = 0.11 sec. (89.16 ticks)
Probing fixed 0 vars, tightened 235 bounds.
Probing time = 0.14 sec. (22.38 ticks)
Clique table members: 44627.
MIP emphasis: integer feasibility.
MIP search method: dynamic search.
Parallel mode: opportunistic, using up to 32 threads.
Root relaxation solution time = 0.45 sec. (679.16 ticks)

        Nodes                                         Cuts/
   Node  Left     Objective  IInf  Best Integer    Best Bound    ItCnt     Gap

      0     0     3965.4494    78                   3965.4494     5669         
*     0+    0                         3964.3813     3965.4494             0.03%

Root node processing (before b&c):
  Real time             =    1.70 sec. (1350.79 ticks)
Parallel b&c, 32 threads:
  Real time             =    0.00 sec. (0.00 ticks)
  Sync time (average)   =    0.00 sec.
  Wait time (average)   =    0.00 sec.
                          ------------
Total (root+branch&cut) =    1.70 sec. (1350.79 ticks)

Solution pool: 1 solution saved.

MIP - Integer optimal, tolerance (0.005/1e-06):  Objective =  3.9643813170e+03
Current MIP best bound =  3.9654494451e+03 (gap = 1.06813, 0.03%)
Solution time =    1.72 sec.  Iterations = 5669  Nodes = 0 (1)
Deterministic time = 1350.94 ticks  (785.89 ticks/sec)

CPLEX> Incumbent solution written to file 'C:\Users\llavin\Desktop\test826\logs\tmp14yy68o9.cplex.sol'.
CPLEX> NOTE: no warmstart specified for MIP iteration, default behavior is true
NOTE: resolving with all competitive generators using storage-only solution to warmstart
Solving...

Welcome to IBM(R) ILOG(R) CPLEX(R) Interactive Optimizer 12.9.0.0
  with Simplex, Mixed Integer & Barrier Optimizers
5725-A06 5725-A29 5724-Y48 5724-Y49 5724-Y54 5724-Y55 5655-Y21
Copyright IBM Corp. 1988, 2019.  All Rights Reserved.

Type 'help' for a list of available commands.
Type 'help' followed by a command name for more
information on commands.

CPLEX> Logfile 'cplex.log' closed.
Logfile 'C:\Users\llavin\Desktop\test826\logs\tmp_7wsn2nr.cplex.log' open.
CPLEX> New value for parallel optimization mode: -1
CPLEX> New value for mixed integer optimality gap tolerance: 0.005
CPLEX> New value for feasibility tolerance: 1e-09
CPLEX> New value for emphasis for MIP optimization: 1
CPLEX> New value for integrality tolerance: 1e-10
CPLEX> New value for deterministic time limit in ticks: 100000
CPLEX> Problem 'C:\Users\llavin\Desktop\test826\logs\tmpy117kdnj.pyomo.lp' read.
Read time = 0.23 sec. (14.73 ticks)
CPLEX> MIP start file 'C:\Users\llavin\Desktop\test826\logs\tmpht_so9wd.cplex.mst' read.
CPLEX> Problem name         : C:\Users\llavin\Desktop\test826\logs\tmpy117kdnj.pyomo.lp
Objective sense      : Maximize
Variables            :   54525  [Nneg: 1,  Box: 22720,  Free: 4464,
                                 Binary: 27340]
Objective nonzeros   :    9725
Linear constraints   :  123205  [Less: 41346,  Greater: 59096,  Equal: 22763]
  Nonzeros           :  291753
  RHS nonzeros       :   67491

Variables            : Min LB: -5000.000        Max UB: 1000000.       
Objective nonzeros   : Min   : 0.07500000       Max   : 2500.000       
Linear constraints   :
  Nonzeros           : Min   : 0.07500000       Max   : 1000000.       
  RHS nonzeros       : Min   : 0.07500000       Max   : 1000000.       
CPLEX> CPXPARAM_Parallel                                -1
CPXPARAM_Emphasis_MIP                            1
CPXPARAM_Simplex_Tolerances_Feasibility          1.0000000000000001e-09
CPXPARAM_DetTimeLimit                            100000
CPXPARAM_MIP_Tolerances_MIPGap                   0.0050000000000000001
CPXPARAM_MIP_Tolerances_Integrality              1e-10
Warning:  No solution found from 1 MIP starts.
Retaining values of one MIP start for possible repair.
Tried aggregator 3 times.
MIP Presolve eliminated 88710 rows and 19754 columns.
MIP Presolve added 3371 rows and 0 columns.
MIP Presolve modified 24851 coefficients.
Aggregator did 12969 substitutions.
Reduced MIP has 24897 rows, 21246 columns, and 71010 nonzeros.
Reduced MIP has 8396 binaries, 0 generals, 0 SOSs, and 0 indicators.
Presolve time = 0.30 sec. (168.30 ticks)
Probing fixed 379 vars, tightened 4027 bounds.
Probing time = 0.08 sec. (18.50 ticks)
Tried aggregator 2 times.
MIP Presolve eliminated 853 rows and 759 columns.
MIP Presolve modified 3037 coefficients.
Aggregator did 35 substitutions.
Reduced MIP has 24009 rows, 20452 columns, and 68435 nonzeros.
Reduced MIP has 8017 binaries, 0 generals, 0 SOSs, and 0 indicators.
Presolve time = 0.11 sec. (89.17 ticks)
Probing fixed 0 vars, tightened 235 bounds.
Probing time = 0.14 sec. (22.38 ticks)
Clique table members: 44627.
MIP emphasis: integer feasibility.
MIP search method: dynamic search.
Parallel mode: opportunistic, using up to 32 threads.
Root relaxation solution time = 0.50 sec. (718.72 ticks)

        Nodes                                         Cuts/
   Node  Left     Objective  IInf  Best Integer    Best Bound    ItCnt     Gap

      0     0    82475.1342   280                  82475.1342     5989         
      0     0    82093.7808    91                    Cuts: 99     6056         
      0     0    82093.2087    89                    Cuts: 14     6067         
      0     0    82093.2087    88                   Covers: 1     6068         
Repair heuristic found nothing.
      0     2    82093.2087    88                     Cuts: 7     6068         
Elapsed time = 5.03 sec. (2153.01 ticks, tree = 0.02 MB, solutions = 0)
    714   416    81648.5507    76                  82058.8187     8056         
   1300   940    65490.2890    88                  82058.8187    12674         
   2039  1531    62631.7971    11                  82058.8187    20617         
   2592  1935    infeasible                        82058.8187    38824         
   3142  1974    63251.9861    20                  82058.8187    41145         
   3760  2288    infeasible                        82058.8187    57632         
   4381  2544    63180.1989    28                  82058.8187    71599         
   4969  2826  -141715.5425   137                  82058.8187    87329         
   5526  3197    56627.1062    28                  82057.5623   107964         
   7549  4262    infeasible                        82039.1861   189688         
Elapsed time = 21.31 sec. (5256.78 ticks, tree = 108.23 MB, solutions = 0)
   8366  3865    infeasible                        82039.1861   151253         
   8367  4926    infeasible                        63278.1043   254747         
  10252   730    61226.0808    17                  63263.9450   289042         
* 10562+  608                        62657.4850    63245.1759             0.94%
  13825   626        cutoff          62658.2547    63233.1256   355095    0.92%
  16781  2575    63147.3748    22    62658.2547    63232.4413   369897    0.92%
  19342  4203    infeasible          62658.2547    63232.4413   384871    0.92%
  21931  4954    63105.4424    12    62658.2547    63232.4413   391164    0.92%
  24458  6222    62741.9116    13    62658.2547    63232.4413   401436    0.92%
  27212  7625    63126.4463    14    62658.2547    63232.4413   412905    0.92%
Elapsed time = 89.11 sec. (20931.56 ticks, tree = 61.81 MB, solutions = 3)
  29869  9115    62697.4487    26    62658.2547    63232.4413   423826    0.92%
  32403 10044    62677.4368    10    62658.2547    63232.4413   431414    0.92%
  34934 11354        cutoff          62658.2547    63232.4413   441993    0.92%
  37450 12673    62732.9852    12    62658.2547    63232.4413   453487    0.92%
  40049 14277    62714.1960    15    62658.2547    63232.4413   467350    0.92%
  42679 15226    62670.5396    11    62658.2547    63232.4413   476550    0.92%
  45281 15845    62782.6442    15    62658.2547    63232.4413   484163    0.92%
  46951 16521    63026.2002    13    62658.2547    63232.4413   497049    0.92%
  47792 16655    62685.1621    16    62658.2547    63232.4413   504234    0.92%
  47834 16751    infeasible          62658.2547    63022.4194   510000    0.58%
Elapsed time = 94.61 sec. (31109.26 ticks, tree = 143.59 MB, solutions = 3)

Cover cuts applied:  3
Flow cuts applied:  21
Mixed integer rounding cuts applied:  2
Lift and project cuts applied:  10
Gomory fractional cuts applied:  6

Root node processing (before b&c):
  Real time             =    3.14 sec. (2099.53 ticks)
Parallel b&c, 32 threads:
  Real time             =   92.58 sec. (29445.94 ticks)
  Sync time (average)   =    4.53 sec.
  Wait time (average)   =    0.34 sec.
                          ------------
Total (root+branch&cut) =   95.72 sec. (31545.46 ticks)

Solution pool: 3 solutions saved.

MIP - Integer optimal, tolerance (0.005/1e-06):  Objective =  6.2658254654e+04
Current MIP best bound =  6.2965004981e+04 (gap = 306.75, 0.49%)
Solution time =   95.75 sec.  Iterations = 512073  Nodes = 48074 (135)
Deterministic time = 31545.62 ticks  (329.46 ticks/sec)

CPLEX> Incumbent solution written to file 'C:\Users\llavin\Desktop\test826\logs\tmpbik_mfpr.cplex.sol'.
CPLEX> Exporting results... 
